c is-sat
p cnf 9 58
-2 -7 -4 0
-1 -9 -4 0
8 -5 3 0
-2 9 4 0
-5 -4 -9 0
7 -5 3 0
-8 -5 -7 0
-4 -1 -6 0
-4 9 -2 0
-6 -8 4 0
-7 -5 -3 0
9 -8 -1 0
-7 -3 -1 0
4 -2 -7 0
-6 -3 -8 0
2 -7 -9 0
-8 -6 -4 0
-1 -7 9 0
-4 -6 -5 0
-5 -4 -3 0
5 -2 1 0
-2 -7 3 0
-8 -4 5 0
4 2 1 0
-2 -8 -5 0
-5 -1 -2 0
4 -9 -6 0
-2 1 -4 0
-2 9 4 0
-7 -4 -8 0
-1 -8 5 0
-1 -7 -4 0
-8 5 -9 0
6 -7 -3 0
-4 -9 7 0
8 -2 9 0
-5 4 6 0
4 6 -1 0
-8 -7 -6 0
4 2 7 0
9 -2 -8 0
9 -4 -7 0
-1 -9 -4 0
-4 5 -7 0
7 -2 1 0
-6 -8 -4 0
-3 -1 2 0
-2 -4 -1 0
-2 -1 -3 0
8 6 5 0
-8 -9 2 0
-9 -8 6 0
4 -2 -3 0
1 8 -3 0
-5 3 2 0
-5 -2 8 0
-4 -3 7 0
4 -3 -8 0
